(set-info :smt-lib-version 2.6)
(set-logic QF_UFLRA)
(set-info :source |
MathSat group

|)
(set-info :category "random")
(set-info :status sat)
(declare-fun x0 () Real)
(declare-fun x1 () Real)
(declare-fun x2 () Real)
(declare-fun x3 () Real)
(declare-fun x4 () Real)
(declare-fun x5 () Real)
(declare-fun x6 () Real)
(declare-fun x7 () Real)
(declare-fun x8 () Real)
(declare-fun x9 () Real)
(declare-fun x10 () Real)
(declare-fun x11 () Real)
(declare-fun x12 () Real)
(declare-fun x13 () Real)
(declare-fun x14 () Real)
(declare-fun x15 () Real)
(declare-fun x16 () Real)
(declare-fun x17 () Real)
(declare-fun x18 () Real)
(declare-fun x19 () Real)
(declare-fun x20 () Real)
(declare-fun x21 () Real)
(declare-fun x22 () Real)
(declare-fun x23 () Real)
(declare-fun x24 () Real)
(declare-fun x25 () Real)
(declare-fun x26 () Real)
(declare-fun x27 () Real)
(declare-fun x28 () Real)
(declare-fun x29 () Real)
(declare-fun x30 () Real)
(declare-fun x31 () Real)
(declare-fun x32 () Real)
(declare-fun x33 () Real)
(declare-fun x34 () Real)
(declare-fun x35 () Real)
(declare-fun x36 () Real)
(declare-fun x37 () Real)
(declare-fun x38 () Real)
(declare-fun x39 () Real)
(declare-fun f0_1 (Real) Real)
(declare-fun f0_2 (Real Real) Real)
(declare-fun f0_3 (Real Real Real) Real)
(declare-fun f0_4 (Real Real Real Real) Real)
(declare-fun P0 () Bool)
(declare-fun P1 () Bool)
(declare-fun P2 () Bool)
(declare-fun P3 () Bool)
(declare-fun P4 () Bool)
(declare-fun P5 () Bool)
(declare-fun P6 () Bool)
(declare-fun P7 () Bool)
(declare-fun P8 () Bool)
(declare-fun P9 () Bool)
(declare-fun P10 () Bool)
(declare-fun P11 () Bool)
(declare-fun P12 () Bool)
(declare-fun P13 () Bool)
(declare-fun P14 () Bool)
(declare-fun P15 () Bool)
(declare-fun P16 () Bool)
(declare-fun P17 () Bool)
(declare-fun P18 () Bool)
(declare-fun P19 () Bool)
(declare-fun P20 () Bool)
(declare-fun P21 () Bool)
(declare-fun P22 () Bool)
(declare-fun P23 () Bool)
(declare-fun P24 () Bool)
(declare-fun P25 () Bool)
(declare-fun P26 () Bool)
(declare-fun P27 () Bool)
(declare-fun P28 () Bool)
(declare-fun P29 () Bool)
(declare-fun P30 () Bool)
(declare-fun P31 () Bool)
(declare-fun P32 () Bool)
(declare-fun P33 () Bool)
(declare-fun P34 () Bool)
(declare-fun P35 () Bool)
(declare-fun P36 () Bool)
(declare-fun P37 () Bool)
(declare-fun P38 () Bool)
(declare-fun P39 () Bool)
(assert (let ((?v_25 (* 4 x28)) (?v_180 (<= (- (- (* 10 x27) (* 57 x13)) (* 10 x38)) 33)) (?v_30 (* 22 x15)) (?v_102 (= (f0_2 x25 x16) x31)) (?v_193 (= (f0_1 x35) x1)) (?v_15 (distinct x16 x18)) (?v_97 (f0_1 x11))) (let ((?v_106 (distinct ?v_97 (f0_2 x28 x28))) (?v_33 (distinct x0 (f0_1 x32))) (?v_56 (f0_1 x30))) (let ((?v_120 (distinct ?v_56 (f0_2 x4 x11))) (?v_66 (distinct x11 (f0_1 x7))) (?v_170 (= (f0_2 x31 x34) x16)) (?v_1 (= (f0_2 x24 x18) x4)) (?v_10 (f0_1 x6))) (let ((?v_13 (distinct x37 ?v_10)) (?v_50 (= (f0_2 x34 x5) x26)) (?v_17 (= (f0_2 x15 x39) (f0_2 x23 x24))) (?v_132 (= (f0_2 x1 x13) ?v_56)) (?v_89 (distinct (f0_1 x1) (f0_2 x14 x14))) (?v_54 (= (f0_2 x20 x8) (f0_2 x38 x12))) (?v_11 (f0_1 x29))) (let ((?v_57 (distinct ?v_11 x26)) (?v_63 (f0_1 x34))) (let ((?v_164 (= x35 ?v_63)) (?v_64 (distinct x2 (f0_2 x10 x25))) (?v_157 (distinct ?v_97 (f0_1 x19))) (?v_150 (= ?v_11 x26)) (?v_107 (distinct x38 (f0_2 x23 x23))) (?v_36 (distinct (f0_1 x3) x38)) (?v_9 (f0_1 x15))) (let ((?v_48 (distinct ?v_9 x10)) (?v_58 (f0_1 x31))) (let ((?v_77 (distinct ?v_58 x20)) (?v_90 (= x31 ?v_11)) (?v_53 (= ?v_9 ?v_10)) (?v_44 (= (f0_2 x32 x18) x25)) (?v_29 (distinct x32 (f0_2 x5 x27))) (?v_73 (distinct (f0_2 x6 x6) ?v_63)) (?v_3 (distinct (f0_2 x12 x33) (f0_2 x14 x38))) (?v_121 (distinct (f0_2 x6 x33) (f0_1 x38))) (?v_0 (= (f0_1 x12) x18)) (?v_134 (= (f0_1 x20) (f0_2 x15 x21))) (?v_16 (= x37 x18)) (?v_59 (= (f0_2 x13 x6) x10)) (?v_34 (distinct (f0_2 x27 x22) x15)) (?v_4 (= (f0_1 x27) ?v_9)) (?v_190 (distinct x24 ?v_58)) (?v_84 (distinct x25 x23)) (?v_12 (= x21 x25))) (let ((?v_61 (not ?v_0)) (?v_74 (not P11)) (?v_92 (not ?v_15)) (?v_186 (not ?v_84)) (?v_98 (not ?v_77)) (?v_211 (not ?v_4)) (?v_96 (not ?v_107)) (?v_35 (not P22)) (?v_49 (not ?v_1)) (?v_27 (not P2)) (?v_7 (not ?v_3)) (?v_183 (not P12)) (?v_78 (not P15))) (let ((?v_184 (or ?v_78 ?v_7)) (?v_129 (not P29)) (?v_14 (not P34)) (?v_69 (not P25)) (?v_45 (not ?v_90)) (?v_136 (not P30)) (?v_62 (not P4)) (?v_198 (not P7)) (?v_100 (not ?v_50)) (?v_135 (not ?v_16)) (?v_38 (not P38)) (?v_104 (not P16)) (?v_109 (not P32)) (?v_20 (not ?v_44)) (?v_46 (not ?v_170)) (?v_70 (not P27)) (?v_162 (not ?v_132)) (?v_112 (not ?v_33)) (?v_111 (not P1)) (?v_144 (not P17)) (?v_43 (not ?v_12)) (?v_51 (not P8)) (?v_143 (not P35)) (?v_153 (not ?v_34)) (?v_71 (not ?v_54)) (?v_76 (not P5)) (?v_83 (not P23)) (?v_154 (not P36)) (?v_149 (not ?v_190)) (?v_122 (not ?v_59)) (?v_165 (not P28)) (?v_173 (not P14)) (?v_130 (not P24)) (?v_119 (not ?v_64)) (?v_95 (not ?v_66)) (?v_114 (not ?v_180)) (?v_75 (not ?v_134)) (?v_125 (not ?v_48)) (?v_101 (not P18)) (?v_113 (not ?v_53)) (?v_93 (not P37)) (?v_142 (not ?v_57)) (?v_141 (not P3)) (?v_126 (not ?v_89)) (?v_171 (not ?v_13)) (?v_192 (not ?v_102)) (?v_152 (not ?v_17)) (?v_167 (not ?v_106)) (?v_158 (not P6)) (?v_145 (not ?v_120)) (?v_161 (not ?v_121)) (?v_163 (not P26)) (?v_178 (not ?v_193)) (?v_151 (not ?v_36)) (?v_172 (not P33)) (?v_159 (not ?v_29)) (?v_195 (not P19)) (?v_207 (not ?v_157)) (?v_179 (not P20)) (?v_201 (not ?v_164)) (?v_206 (not ?v_73)) (?v_168 (not P10)) (?v_205 (not P0)) (?v_189 (not ?v_150)) (?v_197 (not P21)) (?v_199 (not P13)) (?v_203 (not P31)) (?v_208 (or ?v_27 ?v_54)) (?v_204 (not P9)) (?v_209 (not P39)) (?v_24 (distinct (+ (* 40 x25) (* 42 x39) (* 42 x16)) 46))) (let ((?v_81 (not ?v_24)) (?v_8 (<= (+ (* 25 x3) (* 56 x39) (* 29 x30)) 39))) (let ((?v_177 (not ?v_8)) (?v_60 (<= (+ (* 45 x8) x36 ?v_25) 0)) (?v_137 (<= (+ (* 6 x26) (* 41 x35) (* 9 x16)) 43))) (let ((?v_118 (not ?v_137)) (?v_91 (<= (+ (* 19 x9) (* 6 x34) (* 26 x23)) 59)) (?v_117 (= (+ (* 39 x10) (* 2 x20) (* 27 x26)) 33))) (let ((?v_82 (not ?v_117)) (?v_196 (not ?v_60)) (?v_174 (not ?v_91)) (?v_18 (= (+ (- x37 (* 18 x28)) (* 41 x25)) (- 45))) (?v_85 (< (- (- (* (- 37) x7) (* 32 x18)) (* 37 x8)) 17)) (?v_110 (= (- (+ (* 51 x29) (* 17 x21)) (* 9 x9)) (- 22)))) (let ((?v_55 (not ?v_110)) (?v_148 (<= (+ (* (- 53) x4) (* 38 x33) (* 46 x29)) 47))) (let ((?v_26 (not ?v_148)) (?v_5 (<= (+ (* (- 54) x31) (* 19 x23) (* 12 x18)) (- 13))) (?v_19 (<= (- (- (* 2 x37) (* 52 x34)) (* 38 x9)) (- 7))) (?v_2 (<= (- (+ (* (- 18) x32) (* 15 x12)) (* 49 x32)) (- 7))) (?v_80 (< (+ (* 23 x36) (* 7 x38) (* 28 x17)) (- 3)))) (let ((?v_140 (not ?v_80)) (?v_21 (<= (- (+ (* (- 24) x29) x10) (* 24 x25)) (- 50))) (?v_72 (not ?v_2)) (?v_175 (<= (+ (* (- 27) x29) (* 5 x39) (* 29 x33)) 24))) (let ((?v_156 (not ?v_175)) (?v_6 (not ?v_5)) (?v_31 (= (+ (- (* 42 x31) (* 31 x20)) (* 40 x27)) (- 35))) (?v_166 (< (+ (- (* (- 33) x37) (* 2 x10)) (* 33 x16)) 52))) (let ((?v_133 (not ?v_166)) (?v_37 (<= (+ (* (- 46) x20) (* 23 x19) (* 16 x9)) 9)) (?v_40 (<= (- (- (* (- 55) x22) (* 11 x7)) (* 45 x21)) 21)) (?v_155 (distinct (+ (* (- 37) x4) (* 20 x31) (* 51 x22)) 37))) (let ((?v_22 (not ?v_155)) (?v_128 (= (+ (- (* (- 8) x39) (* 53 x29)) (* 37 x1)) (- 40)))) (let ((?v_187 (not ?v_128)) (?v_42 (< (- (+ (* 30 x35) (* 10 x1)) (* 30 x6)) (- 30))) (?v_52 (<= (+ (- 0 (* 32 x2)) (* 48 x27)) (- 42))) (?v_28 (not ?v_19)) (?v_23 (not ?v_18)) (?v_146 (distinct (- (+ (* 13 x27) (* 55 x14)) (* 10 x33)) (- 22)))) (let ((?v_176 (not ?v_146)) (?v_210 (<= (+ (- (* 14 x1) (* 14 x21)) (* 22 x26)) (- 56)))) (let ((?v_103 (not ?v_210)) (?v_32 (<= (+ (* 9 x5) ?v_30 (* 20 x5)) (- 47)))) (let ((?v_116 (not ?v_32)) (?v_39 (distinct (- (- (* (- 36) x38) (* 26 x14)) (* 11 x2)) 30))) (let ((?v_124 (not ?v_39)) (?v_47 (<= (- (+ (* (- 55) x29) ?v_25) (* 22 x37)) (- 45)))) (let ((?v_181 (not ?v_47)) (?v_41 (not ?v_21)) (?v_88 (<= (+ (* (- 19) x32) (* 15 x3) ?v_30) (- 22))) (?v_68 (not ?v_37)) (?v_108 (not ?v_40)) (?v_123 (< (- (+ (* (- 22) x7) (* 16 x4)) (* 48 x34)) 10))) (let ((?v_127 (not ?v_123)) (?v_188 (not ?v_42)) (?v_115 (<= (+ (* (- 18) x9) (* 44 x14) (* 5 x18)) (- 53)))) (let ((?v_94 (not ?v_115)) (?v_67 (< (- (+ (* (- 31) x11) (* 30 x28)) (* 31 x32)) (- 55))) (?v_160 (not ?v_52)) (?v_87 (< (+ (- (* (- 36) x0) (* 12 x34)) (* 11 x4)) 7)) (?v_194 (distinct (- (+ (* 47 x24) (* 2 x27)) (* 14 x33)) (- 11)))) (let ((?v_131 (not ?v_194)) (?v_65 (not ?v_31)) (?v_139 (= (+ (* (- 12) x11) (* 27 x5) (* 34 x35)) 9))) (let ((?v_105 (not ?v_139)) (?v_138 (not ?v_67)) (?v_79 (< (+ (- (* 53 x6) (* 28 x33)) (* 47 x9)) (- 48)))) (let ((?v_99 (not ?v_79)) (?v_86 (not ?v_85))) (let ((?v_147 (or ?v_86 ?v_87)) (?v_200 (not ?v_88)) (?v_169 (= (+ (* (- 19) x5) (* 26 x20) (* 24 x20)) (- 31)))) (let ((?v_191 (not ?v_169)) (?v_185 (not ?v_87)) (?v_182 (<= (+ (* (- 20) x34) (* 34 x18) (* 40 x10)) (- 34)))) (let ((?v_202 (not ?v_182))) (and (and (and (and (and (and (and (and (and (and (and (and (and (and (and (and (and (and (and (and (and (and (and (and (and (and (and (and (and (and (and (and (and (and (and (and (and (and (and (and (and (and (and (and (and (and (and (and (and (and (and (and (and (and (and (and (and (and (and (and (and (and (and (and (and (and (and (and (and (and (and (and (and (and (and (and (and (and (and (and (and (and (and (and (and (and (and (and (and (and (and (and (and (and (and (and (and (and (and (and (and (and (and (and (and (and (and (and (and (and (and (and (and (and (and (and (and (and (and (and (and (and (and (and (and (and (and (and (and (and (and (and (and (and (and (and (and (and (and (and (and (and (and (and (and (and (and (and (and (and (and (and (and (and (and (and (and (and (and (and (and (and (and (and (and (and (and (and (and (and (and (and (and (and (and (and (and (and (and (and (and (and (and (and (and (and (and (and (and (and (and (and (and (and (and (and (and (and (and (and (and (and (and (and (and (and (and (and (and (and (and (and (and (and (and (and (and (and (and (and (and (and (and (and (and (and (and (and (and (and (and (and (and (and (and (and (and (and (and (and (and (and (and (and (and (and (and (and (and (and (and (and (and (and (and (and (and (and (and (and (and (and (and (and (and (and (and (and (and (and (and (and (and (and (and (and (and (and (and (and (and (and (and (and (and (and (and (and (and (and (and (and (and (and (and (and (and (and (and (and (and (and (and (and (and (and (and (and (and (and (and (and (and (and (and (and (and (and (and (and (and (and (and (and (and (and (and (and (and (and (and (and (and (and (and (and (and (and (and (and (and (and (and (and (and (and (and (and (and (and (and (and (and (and (and (and (and (and (and (and (and (and (and (and (and (and (and (and (and (and (and (and (and (and (and (and (and (and (and (and (and (and (and (and (and (and (and (and (and (and (and (and (and (and (and (and (and (and (and (and (and (and (and (and (and (and (and (and (and (and (and (and (and (and (and (and (and (and (and (and (and (and (and (and (and (and (and (and (and (and (and (and (and (and (and (and (and (and (and (and (and (and (and (and (and (and (and (and (and (and (and (and (and (and (and (and (and (and (and (and (and (and (and (and (and (and (and (and (and (and (and (and (and (and (and (and (and (and (and (or (or ?v_18 ?v_61) P21) (or (or ?v_74 ?v_85) ?v_3)) (or (or ?v_55 ?v_26) ?v_92)) (or (or ?v_1 ?v_5) ?v_19)) (or (or ?v_57 ?v_2) ?v_186)) (or (or ?v_81 ?v_98) ?v_211)) (or (or ?v_140 ?v_16) ?v_13)) (or (or ?v_96 ?v_0) P6)) (or (or ?v_35 ?v_49) ?v_27)) (or (or ?v_21 ?v_72) ?v_7)) (or (or P3 ?v_17) P27)) (or (or ?v_36 ?v_156) ?v_4)) (or (or ?v_6 ?v_6) ?v_183)) (or ?v_184 P20)) (or (or ?v_129 ?v_31) ?v_12)) (or (or ?v_14 ?v_8) P27)) (or (or P3 ?v_69) ?v_177)) (or (or ?v_2 ?v_53) P33)) (or (or P17 ?v_45) ?v_133)) (or (or ?v_12 ?v_13) ?v_37)) (or (or ?v_136 ?v_40) P3)) (or (or P36 P38) ?v_62)) (or (or ?v_14 ?v_15) ?v_22)) (or (or ?v_198 P20) ?v_187)) (or (or ?v_89 ?v_100) P25)) (or (or P33 ?v_135) ?v_38)) (or (or ?v_17 ?v_42) ?v_18)) (or (or ?v_60 ?v_64) ?v_104)) (or (or ?v_19 ?v_52) ?v_109)) (or (or P0 ?v_28) ?v_20)) (or (or ?v_20 ?v_21) ?v_46)) (or (or P22 ?v_70) ?v_23)) (or (or ?v_13 ?v_22) ?v_106)) (or (or ?v_176 ?v_164) ?v_103)) (or (or ?v_116 ?v_162) ?v_23)) (or (or ?v_3 ?v_124) ?v_112)) (or (or ?v_111 ?v_24) ?v_29)) (or (or ?v_181 ?v_26) ?v_27)) (or (or ?v_144 ?v_28) P25)) (or (or ?v_41 ?v_43) ?v_29)) (or (or ?v_51 ?v_48) ?v_88)) (or (or ?v_31 ?v_59) ?v_143)) (or (or ?v_32 ?v_33) ?v_34)) (or (or ?v_153 ?v_35) ?v_36)) (or (or ?v_68 ?v_36) ?v_38)) (or (or ?v_39 ?v_36) ?v_108)) (or (or ?v_41 P14) ?v_34)) (or (or ?v_127 P15) P16)) (or (or ?v_188 ?v_43) ?v_71)) (or (or ?v_44 P16) ?v_94)) (or (or ?v_76 ?v_67) ?v_45)) (or (or ?v_46 ?v_47) ?v_48)) (or (or ?v_49 ?v_50) ?v_51)) (or (or P36 ?v_118) ?v_160)) (or (or ?v_53 ?v_87) ?v_131)) (or (or P37 ?v_54) ?v_55)) (or (or ?v_65 ?v_120) ?v_83)) (or (or ?v_154 ?v_57) ?v_149)) (or (or ?v_18 ?v_122) ?v_105)) (or (or ?v_165 ?v_60) ?v_173)) (or (or P33 ?v_61) ?v_62)) (or (or ?v_8 P24) ?v_60)) (or (or ?v_130 ?v_73) ?v_39)) (or (or ?v_119 P34) ?v_66)) (or (or ?v_54 ?v_31) P6)) (or (or ?v_23 ?v_47) P11)) (or (or ?v_65 ?v_95) ?v_138)) (or (or ?v_68 ?v_69) ?v_70)) (or (or ?v_71 ?v_72) ?v_114)) (or (or P4 ?v_75) ?v_73)) (or (or ?v_33 ?v_35) P13)) (or (or ?v_42 ?v_61) ?v_125)) (or (or ?v_74 ?v_101) ?v_14)) (or (or ?v_17 ?v_75) ?v_79)) (or (or ?v_12 P35) P12)) (or (or ?v_113 P10) ?v_76)) (or (or P39 ?v_77) ?v_70)) (or (or ?v_29 ?v_61) ?v_78)) (or (or ?v_52 ?v_93) ?v_99)) (or (or ?v_80 ?v_81) ?v_6)) (or (or ?v_142 ?v_91) ?v_28)) (or (or P12 ?v_82) ?v_2)) (or (or ?v_43 ?v_82) ?v_44)) (or (or ?v_62 ?v_72) ?v_83)) (or (or ?v_13 ?v_84) ?v_8)) (or (or ?v_196 P26) ?v_102)) (or (or ?v_6 ?v_86) ?v_141)) (or ?v_147 ?v_200)) (or (or ?v_126 ?v_4) ?v_90)) (or (or ?v_3 ?v_40) ?v_78)) (or (or ?v_67 ?v_171) P25)) (or (or ?v_91 ?v_26) ?v_92)) (or (or ?v_29 ?v_93) P11)) (or (or ?v_94 ?v_36) ?v_95)) (or (or ?v_64 ?v_96) ?v_28)) (or (or ?v_90 ?v_76) P1)) (or (or P11 ?v_157) ?v_88)) (or (or ?v_98 ?v_99) ?v_100)) (or (or ?v_101 ?v_46) ?v_192)) (or (or ?v_103 ?v_36) ?v_8)) (or (or ?v_69 ?v_104) ?v_105)) (or (or ?v_152 ?v_150) ?v_167)) (or (or ?v_23 ?v_107) P11)) (or (or ?v_121 ?v_34) ?v_87)) (or (or ?v_108 ?v_73) ?v_109)) (or (or ?v_110 ?v_49) P20)) (or (or P2 ?v_158) ?v_111)) (or (or ?v_112 ?v_113) ?v_114)) (or (or ?v_115 ?v_47) ?v_39)) (or (or ?v_116 ?v_39) P12)) (or (or P1 ?v_117) ?v_118)) (or (or ?v_119 ?v_49) ?v_145)) (or (or ?v_161 ?v_91) ?v_13)) (or (or ?v_163 ?v_95) P33)) (or (or P12 ?v_122) ?v_92)) (or (or ?v_178 ?v_123) ?v_0)) (or (or P18 ?v_12) ?v_124)) (or (or P39 ?v_112) ?v_93)) (or (or ?v_125 ?v_126) P37)) (or (or ?v_127 ?v_128) ?v_129)) (or (or ?v_130 ?v_59) ?v_23)) (or (or ?v_112 ?v_151) P18)) (or (or ?v_113 P39) ?v_14)) (or (or ?v_20 ?v_8) ?v_131)) (or (or ?v_132 ?v_55) ?v_80)) (or (or ?v_92 P28) ?v_133)) (or (or ?v_134 P36) ?v_106)) (or (or ?v_27 ?v_135) P18)) (or (or ?v_57 ?v_59) ?v_68)) (or (or P21 ?v_5) ?v_4)) (or (or ?v_136 ?v_16) ?v_64)) (or (or ?v_28 ?v_55) ?v_137)) (or (or ?v_98 ?v_138) ?v_139)) (or (or ?v_98 ?v_78) P4)) (or (or ?v_86 ?v_85) ?v_172)) (or (or ?v_66 ?v_23) ?v_31)) (or (or ?v_159 ?v_109) ?v_81)) (or (or ?v_195 ?v_101) ?v_110)) (or (or ?v_140 ?v_137) P33)) (or (or ?v_141 ?v_142) ?v_131)) (or (or P17 P29) ?v_65)) (or (or P14 ?v_143) ?v_144)) (or (or ?v_145 ?v_146) ?v_68)) (or ?v_147 P19)) (or (or ?v_148 ?v_114) ?v_119)) (or (or P34 ?v_29) ?v_114)) (or (or ?v_66 P9) ?v_126)) (or (or ?v_132 ?v_92) ?v_96)) (or (or ?v_191 ?v_135) ?v_149)) (or (or ?v_102 ?v_16) P20)) (or (or ?v_110 ?v_85) ?v_124)) (or (or ?v_150 P35) ?v_151)) (or (or ?v_140 ?v_17) ?v_62)) (or (or ?v_140 ?v_32) P22)) (or (or ?v_152 ?v_125) ?v_66)) (or (or ?v_36 ?v_153) P27)) (or (or ?v_106 ?v_154) ?v_137)) (or (or ?v_155 ?v_151) ?v_124)) (or (or ?v_152 P14) ?v_156)) (or (or ?v_126 P8) ?v_24)) (or (or ?v_55 ?v_79) ?v_117)) (or (or ?v_61 ?v_139) P15)) (or (or ?v_47 ?v_28) ?v_75)) (or (or ?v_54 ?v_0) ?v_62)) (or (or ?v_80 ?v_12) ?v_101)) (or (or ?v_207 ?v_71) P14)) (or (or ?v_142 ?v_82) ?v_138)) (or (or ?v_95 ?v_158) ?v_106)) (or (or ?v_46 P21) ?v_48)) (or (or ?v_122 ?v_50) P4)) (or (or ?v_179 ?v_154) ?v_104)) (or (or ?v_83 ?v_73) ?v_91)) (or (or ?v_159 ?v_75) ?v_46)) (or (or ?v_151 P31) ?v_26)) (or (or ?v_64 ?v_29) ?v_47)) (or (or P22 ?v_37) ?v_98)) (or (or ?v_160 ?v_161) P8)) (or (or ?v_85 ?v_7) ?v_57)) (or (or ?v_24 P21) ?v_130)) (or (or ?v_55 P28) ?v_107)) (or (or ?v_46 ?v_114) P19)) (or (or ?v_162 ?v_32) ?v_41)) (or (or ?v_163 ?v_161) ?v_32)) (or (or ?v_42 ?v_201) ?v_206)) (or (or ?v_145 ?v_50) ?v_156)) (or (or P4 P29) ?v_44)) (or (or ?v_140 ?v_164) ?v_100)) (or (or ?v_165 ?v_160) ?v_159)) (or (or ?v_114 ?v_90) P39)) (or (or ?v_8 P1) ?v_160)) (or (or ?v_50 ?v_165) P16)) (or (or ?v_46 ?v_168) ?v_76)) (or (or ?v_85 ?v_155) P20)) (or (or ?v_52 ?v_148) ?v_72)) (or (or ?v_162 ?v_138) ?v_33)) (or (or ?v_163 ?v_166) P4)) (or (or ?v_165 ?v_82) P20)) (or (or ?v_53 ?v_60) ?v_29)) (or (or ?v_167 ?v_90) ?v_48)) (or (or ?v_19 ?v_66) ?v_72)) (or (or ?v_129 ?v_8) ?v_166)) (or (or ?v_36 P26) P0)) (or (or ?v_168 ?v_169) ?v_96)) (or (or ?v_117 ?v_155) ?v_170)) (or (or ?v_70 P30) ?v_138)) (or (or ?v_75 ?v_32) ?v_170)) (or (or ?v_205 P25) ?v_112)) (or (or P3 ?v_171) P0)) (or (or ?v_21 ?v_27) ?v_189)) (or (or P12 ?v_172) ?v_144)) (or (or ?v_83 ?v_114) ?v_78)) (or (or P37 ?v_163) ?v_133)) (or (or ?v_174 P34) ?v_145)) (or (or ?v_24 ?v_114) ?v_173)) (or (or P20 P34) ?v_174)) (or (or ?v_41 ?v_165) ?v_28)) (or (or P6 ?v_28) ?v_100)) (or (or ?v_160 ?v_86) ?v_175)) (or (or ?v_142 ?v_149) ?v_176)) (or (or ?v_177 ?v_185) P34)) (or (or ?v_84 ?v_53) ?v_105)) (or (or ?v_20 ?v_178) P14)) (or (or ?v_182 ?v_18) ?v_21)) (or (or ?v_138 P16) P7)) (or (or ?v_165 ?v_165) P13)) (or (or P35 ?v_167) P25)) (or (or ?v_64 ?v_40) ?v_50)) (or (or ?v_39 ?v_125) ?v_64)) (or (or ?v_75 ?v_120) P20)) (or (or ?v_71 P30) ?v_179)) (or (or ?v_65 ?v_73) ?v_113)) (or (or ?v_57 ?v_42) ?v_87)) (or (or ?v_197 ?v_149) ?v_180)) (or (or ?v_77 ?v_116) ?v_99)) (or (or ?v_79 ?v_174) ?v_50)) (or (or ?v_174 ?v_89) ?v_181)) (or (or P3 ?v_128) ?v_182)) (or (or P0 P34) P5)) (or (or ?v_4 ?v_18) ?v_93)) (or (or ?v_31 ?v_116) ?v_60)) (or (or ?v_13 ?v_150) ?v_180)) (or (or ?v_65 ?v_101) ?v_166)) (or (or ?v_32 ?v_173) P13)) (or (or ?v_44 ?v_122) ?v_110)) (or (or ?v_199 P14) ?v_183)) (or ?v_184 P35)) (or (or ?v_181 ?v_73) ?v_177)) (or (or P9 ?v_139) ?v_1)) (or (or P31 ?v_69) ?v_182)) (or (or ?v_121 P13) ?v_113)) (or (or ?v_3 P18) ?v_0)) (or (or ?v_1 ?v_178) ?v_155)) (or (or P13 ?v_14) ?v_185)) (or (or ?v_15 ?v_125) ?v_186)) (or (or ?v_85 ?v_24) ?v_49)) (or (or ?v_102 ?v_182) ?v_161)) (or (or ?v_137 ?v_120) ?v_38)) (or (or ?v_23 ?v_187) ?v_151)) (or (or ?v_55 ?v_105) ?v_135)) (or (or P27 ?v_18) ?v_141)) (or (or ?v_76 P7) P39)) (or (or P5 ?v_158) ?v_20)) (or (or P37 ?v_188) ?v_0)) (or (or P2 ?v_94) ?v_176)) (or (or ?v_189 ?v_132) ?v_118)) (or (or ?v_141 ?v_190) ?v_81)) (or (or ?v_64 ?v_21) ?v_186)) (or (or ?v_203 ?v_173) ?v_72)) (or (or ?v_134 ?v_77) ?v_31)) (or (or ?v_158 ?v_34) ?v_35)) (or (or ?v_38 ?v_61) ?v_74)) (or (or ?v_7 P15) P13)) (or (or ?v_161 ?v_21) P14)) (or (or ?v_132 ?v_124) ?v_93)) (or (or ?v_127 ?v_15) ?v_136)) (or (or ?v_65 P29) ?v_161)) (or (or ?v_146 ?v_42) ?v_117)) (or (or ?v_41 P7) ?v_155)) (or (or ?v_83 ?v_24) P36)) (or (or ?v_4 ?v_61) ?v_64)) (or (or ?v_130 ?v_140) ?v_83)) (or (or ?v_191 ?v_170) ?v_21)) (or (or ?v_132 ?v_19) ?v_192)) (or (or P25 ?v_75) ?v_132)) (or (or ?v_35 ?v_45) ?v_158)) (or (or ?v_187 ?v_35) ?v_170)) (or (or ?v_13 ?v_191) ?v_51)) (or (or ?v_105 ?v_89) ?v_41)) (or (or ?v_101 P38) ?v_158)) (or (or ?v_170 ?v_143) ?v_150)) (or (or ?v_193 ?v_104) P39)) (or (or ?v_189 ?v_28) ?v_35)) (or (or ?v_140 ?v_113) P19)) (or (or ?v_168 P15) ?v_31)) (or (or ?v_18 ?v_158) P26)) (or (or ?v_102 ?v_35) ?v_151)) (or (or ?v_4 ?v_6) P29)) (or (or ?v_194 ?v_32) P17)) (or (or ?v_193 ?v_118) P26)) (or ?v_208 ?v_23)) (or (or ?v_140 ?v_145) ?v_115)) (or (or P37 ?v_74) ?v_152)) (or (or ?v_100 ?v_47) P26)) (or (or ?v_151 ?v_186) ?v_85)) (or (or ?v_48 P2) ?v_95)) (or (or P34 ?v_170) ?v_104)) (or (or ?v_159 ?v_87) ?v_8)) (or (or ?v_119 ?v_69) ?v_38)) (or (or ?v_104 ?v_195) ?v_77)) (or (or ?v_152 ?v_61) ?v_126)) (or (or ?v_89 ?v_5) P5)) (or (or ?v_33 P7) ?v_84)) (or (or ?v_177 ?v_82) ?v_78)) (or (or ?v_16 ?v_126) ?v_64)) (or (or ?v_167 ?v_60) ?v_115)) (or (or ?v_94 ?v_149) ?v_143)) (or (or P32 P35) ?v_50)) (or (or ?v_136 ?v_115) P10)) (or (or ?v_34 ?v_146) ?v_170)) (or (or ?v_160 ?v_153) ?v_7)) (or (or ?v_196 ?v_149) ?v_111)) (or (or P19 P15) ?v_117)) (or (or P4 ?v_130) ?v_109)) (or (or ?v_183 ?v_17) ?v_122)) (or (or ?v_161 ?v_161) P9)) (or (or ?v_53 ?v_40) ?v_143)) (or (or ?v_73 ?v_197) ?v_109)) (or (or ?v_13 ?v_107) ?v_51)) (or (or ?v_130 P39) P36)) (or (or ?v_134 P7) ?v_21)) (or (or P20 ?v_90) ?v_151)) (or (or ?v_33 ?v_165) P16)) (or (or ?v_142 ?v_180) ?v_39)) (or (or ?v_74 ?v_60) ?v_55)) (or (or P14 ?v_183) ?v_198)) (or (or ?v_158 ?v_176) P3)) (or (or ?v_199 ?v_81) ?v_197)) (or (or ?v_96 ?v_112) ?v_192)) (or (or ?v_204 ?v_85) ?v_44)) (or (or ?v_92 ?v_111) ?v_145)) (or (or P39 ?v_50) ?v_194)) (or (or ?v_81 P25) ?v_91)) (or (or ?v_7 ?v_109) ?v_96)) (or (or ?v_121 ?v_179) ?v_111)) (or (or ?v_31 ?v_194) ?v_83)) (or (or ?v_47 ?v_22) ?v_106)) (or (or ?v_164 ?v_142) ?v_22)) (or (or P31 P26) ?v_128)) (or (or ?v_27 P6) ?v_155)) (or (or ?v_199 ?v_202) ?v_185)) (or (or P14 ?v_83) ?v_14)) (or (or P12 ?v_113) ?v_162)) (or (or ?v_38 P39) ?v_137)) (or (or ?v_21 ?v_197) ?v_71)) (or (or P24 ?v_7) ?v_150)) (or (or ?v_183 ?v_127) ?v_185)) (or (or ?v_148 ?v_52) ?v_198)) (or (or ?v_125 ?v_119) ?v_117)) (or (or ?v_74 ?v_82) ?v_81)) (or (or ?v_83 ?v_35) ?v_39)) (or (or ?v_183 ?v_1) ?v_164)) (or (or ?v_157 P27) ?v_194)) (or (or ?v_41 ?v_73) ?v_33)) (or (or ?v_107 P10) P13)) (or (or ?v_13 ?v_65) ?v_21)) (or (or P18 ?v_124) ?v_200)) (or (or ?v_69 ?v_111) ?v_100)) (or (or ?v_61 ?v_57) P26)) (or (or ?v_114 ?v_180) ?v_91)) (or (or ?v_195 ?v_201) P17)) (or (or ?v_87 ?v_24) ?v_69)) (or (or ?v_200 ?v_31) ?v_80)) (or (or ?v_202 ?v_54) ?v_14)) (or (or ?v_82 ?v_164) P38)) (or (or ?v_23 ?v_106) ?v_99)) (or (or ?v_162 ?v_31) ?v_48)) (or (or ?v_73 P16) ?v_55)) (or (or ?v_37 ?v_49) P22)) (or (or ?v_17 ?v_4) ?v_48)) (or (or ?v_112 ?v_101) ?v_84)) (or (or ?v_139 ?v_151) ?v_61)) (or (or ?v_202 ?v_176) ?v_107)) (or (or ?v_86 P10) ?v_51)) (or (or ?v_175 ?v_200) P4)) (or (or ?v_150 P28) ?v_91)) (or (or ?v_44 ?v_141) ?v_164)) (or (or ?v_170 P26) ?v_12)) (or (or ?v_90 ?v_62) ?v_68)) (or (or P32 ?v_61) ?v_128)) (or (or ?v_39 ?v_98) ?v_5)) (or (or ?v_160 ?v_119) ?v_197)) (or (or ?v_5 P38) ?v_203)) (or (or P4 ?v_101) ?v_102)) (or (or ?v_23 ?v_67) ?v_197)) (or (or ?v_20 P12) P30)) (or (or ?v_32 ?v_129) ?v_113)) (or (or ?v_151 ?v_89) ?v_35)) (or (or ?v_18 ?v_119) ?v_59)) (or (or ?v_138 ?v_4) ?v_6)) (or (or P35 P13) ?v_43)) (or (or P6 ?v_140) ?v_2)) (or (or ?v_178 P37) ?v_66)) (or (or ?v_192 ?v_34) ?v_182)) (or (or P10 ?v_1) ?v_145)) (or (or P20 ?v_162) ?v_182)) (or (or ?v_86 ?v_200) ?v_122)) (or (or ?v_204 ?v_139) ?v_176)) (or (or ?v_96 ?v_158) P18)) (or (or ?v_205 ?v_132) ?v_178)) (or (or ?v_90 ?v_110) P19)) (or (or ?v_111 P22) ?v_146)) (or (or ?v_46 ?v_6) P15)) (or (or ?v_21 ?v_186) ?v_128)) (or (or P37 ?v_101) ?v_81)) (or (or ?v_141 ?v_192) ?v_108)) (or (or ?v_160 ?v_92) P24)) (or (or ?v_80 ?v_136) ?v_20)) (or (or P32 ?v_166) P30)) (or (or ?v_119 ?v_53) ?v_38)) (or (or ?v_174 ?v_137) P8)) (or (or P10 ?v_33) ?v_114)) (or (or ?v_42 ?v_206) P39)) (or (or P39 ?v_169) ?v_150)) (or (or ?v_99 ?v_96) ?v_55)) (or (or P39 P20) ?v_69)) (or (or P36 ?v_207) ?v_67)) (or (or P16 P22) ?v_167)) (or (or ?v_205 ?v_55) ?v_126)) (or (or ?v_153 ?v_193) ?v_112)) (or (or ?v_4 ?v_191) P13)) (or (or ?v_66 ?v_194) ?v_162)) (or (or ?v_146 ?v_144) ?v_19)) (or ?v_208 P35)) (or (or ?v_20 ?v_114) ?v_29)) (or (or P27 ?v_171) ?v_44)) (or (or ?v_15 P9) ?v_87)) (or (or P30 ?v_203) P11)) (or (or ?v_125 ?v_133) ?v_14)) (or (or ?v_34 ?v_94) ?v_126)) (or (or ?v_41 ?v_148) ?v_7)) (or (or P10 ?v_42) ?v_209)) (or (or ?v_123 ?v_57) ?v_50)) (or (or ?v_209 ?v_130) ?v_70)) (or (or ?v_3 ?v_13) ?v_50)) (or (or ?v_188 ?v_142) ?v_143)) (or (or ?v_61 P17) ?v_210)) (or (or ?v_39 P4) ?v_61)) (or (or ?v_35 ?v_128) ?v_167)) (or (or ?v_106 ?v_106) ?v_99)) (or (or P37 ?v_121) ?v_15)) (or (or ?v_73 ?v_51) ?v_121)) (or (or ?v_5 ?v_89) ?v_94)) (or (or ?v_68 ?v_28) ?v_203)) (or (or ?v_4 ?v_100) P29)) (or (or P34 ?v_198) ?v_93)) (or (or ?v_42 P6) ?v_124)) (or (or P12 ?v_163) ?v_152)) (or (or ?v_175 ?v_70) ?v_12)) (or (or ?v_152 P32) ?v_210)) (or (or ?v_129 ?v_119) ?v_154)) (or (or ?v_83 ?v_91) P20)) (or (or ?v_156 ?v_47) ?v_165)) (or (or ?v_38 ?v_12) ?v_94)) (or (or ?v_6 ?v_179) ?v_203)) (or (or P10 ?v_141) ?v_211)) (or (or ?v_199 ?v_182) ?v_93)) (or (or ?v_172 ?v_49) ?v_16)) (or (or ?v_35 ?v_96) ?v_60)) (or (or P17 ?v_41) ?v_157)) (or (or P27 ?v_20) ?v_199)) (or (or ?v_50 P5) ?v_46)) (or (or ?v_95 ?v_137) ?v_92)) (or (or ?v_206 P23) ?v_114)) (or (or P8 ?v_101) ?v_168)) (or (or ?v_85 ?v_168) ?v_26)) (or (or ?v_173 ?v_15) ?v_53)) (or (or ?v_75 ?v_116) ?v_95)) (or (or ?v_17 P24) ?v_81)) (or (or ?v_100 ?v_59) ?v_181)) (or (or P4 ?v_207) ?v_141)))))))))))))))))))))))))))))))))))))
(check-sat)
(exit)
